p cnf 150 350
1 2 3 0
1 2 -3 0
1 -2 3 0
1 -2 -3 0
-1 2 3 0
-1 2 -3 0
-1 -2 3 0
4 5 6 0
4 5 -6 0
4 -5 6 0
4 -5 -6 0
-4 5 6 0
-4 5 -6 0
-4 -5 6 0
7 8 9 0
7 8 -9 0
7 -8 9 0
7 -8 -9 0
-7 8 9 0
-7 8 -9 0
-7 -8 9 0
10 11 12 0
10 11 -12 0
10 -11 12 0
10 -11 -12 0
-10 11 12 0
-10 11 -12 0
-10 -11 12 0
13 14 15 0
13 14 -15 0
13 -14 15 0
13 -14 -15 0
-13 14 15 0
-13 14 -15 0
-13 -14 15 0
16 17 18 0
16 17 -18 0
16 -17 18 0
16 -17 -18 0
-16 17 18 0
-16 17 -18 0
-16 -17 18 0
19 20 21 0
19 20 -21 0
19 -20 21 0
19 -20 -21 0
-19 20 21 0
-19 20 -21 0
-19 -20 21 0
22 23 24 0
22 23 -24 0
22 -23 24 0
22 -23 -24 0
-22 23 24 0
-22 23 -24 0
-22 -23 24 0
25 26 27 0
25 26 -27 0
25 -26 27 0
25 -26 -27 0
-25 26 27 0
-25 26 -27 0
-25 -26 27 0
28 29 30 0
28 29 -30 0
28 -29 30 0
28 -29 -30 0
-28 29 30 0
-28 29 -30 0
-28 -29 30 0
31 32 33 0
31 32 -33 0
31 -32 33 0
31 -32 -33 0
-31 32 33 0
-31 32 -33 0
-31 -32 33 0
34 35 36 0
34 35 -36 0
34 -35 36 0
34 -35 -36 0
-34 35 36 0
-34 35 -36 0
-34 -35 36 0
37 38 39 0
37 38 -39 0
37 -38 39 0
37 -38 -39 0
-37 38 39 0
-37 38 -39 0
-37 -38 39 0
40 41 42 0
40 41 -42 0
40 -41 42 0
40 -41 -42 0
-40 41 42 0
-40 41 -42 0
-40 -41 42 0
43 44 45 0
43 44 -45 0
43 -44 45 0
43 -44 -45 0
-43 44 45 0
-43 44 -45 0
-43 -44 45 0
46 47 48 0
46 47 -48 0
46 -47 48 0
46 -47 -48 0
-46 47 48 0
-46 47 -48 0
-46 -47 48 0
49 50 51 0
49 50 -51 0
49 -50 51 0
49 -50 -51 0
-49 50 51 0
-49 50 -51 0
-49 -50 51 0
52 53 54 0
52 53 -54 0
52 -53 54 0
52 -53 -54 0
-52 53 54 0
-52 53 -54 0
-52 -53 54 0
55 56 57 0
55 56 -57 0
55 -56 57 0
55 -56 -57 0
-55 56 57 0
-55 56 -57 0
-55 -56 57 0
58 59 60 0
58 59 -60 0
58 -59 60 0
58 -59 -60 0
-58 59 60 0
-58 59 -60 0
-58 -59 60 0
61 62 63 0
61 62 -63 0
61 -62 63 0
61 -62 -63 0
-61 62 63 0
-61 62 -63 0
-61 -62 63 0
64 65 66 0
64 65 -66 0
64 -65 66 0
64 -65 -66 0
-64 65 66 0
-64 65 -66 0
-64 -65 66 0
67 68 69 0
67 68 -69 0
67 -68 69 0
67 -68 -69 0
-67 68 69 0
-67 68 -69 0
-67 -68 69 0
70 71 72 0
70 71 -72 0
70 -71 72 0
70 -71 -72 0
-70 71 72 0
-70 71 -72 0
-70 -71 72 0
73 74 75 0
73 74 -75 0
73 -74 75 0
73 -74 -75 0
-73 74 75 0
-73 74 -75 0
-73 -74 75 0
76 77 78 0
76 77 -78 0
76 -77 78 0
76 -77 -78 0
-76 77 78 0
-76 77 -78 0
-76 -77 78 0
79 80 81 0
79 80 -81 0
79 -80 81 0
79 -80 -81 0
-79 80 81 0
-79 80 -81 0
-79 -80 81 0
82 83 84 0
82 83 -84 0
82 -83 84 0
82 -83 -84 0
-82 83 84 0
-82 83 -84 0
-82 -83 84 0
85 86 87 0
85 86 -87 0
85 -86 87 0
85 -86 -87 0
-85 86 87 0
-85 86 -87 0
-85 -86 87 0
88 89 90 0
88 89 -90 0
88 -89 90 0
88 -89 -90 0
-88 89 90 0
-88 89 -90 0
-88 -89 90 0
91 92 93 0
91 92 -93 0
91 -92 93 0
91 -92 -93 0
-91 92 93 0
-91 92 -93 0
-91 -92 93 0
94 95 96 0
94 95 -96 0
94 -95 96 0
94 -95 -96 0
-94 95 96 0
-94 95 -96 0
-94 -95 96 0
97 98 99 0
97 98 -99 0
97 -98 99 0
97 -98 -99 0
-97 98 99 0
-97 98 -99 0
-97 -98 99 0
100 101 102 0
100 101 -102 0
100 -101 102 0
100 -101 -102 0
-100 101 102 0
-100 101 -102 0
-100 -101 102 0
103 104 105 0
103 104 -105 0
103 -104 105 0
103 -104 -105 0
-103 104 105 0
-103 104 -105 0
-103 -104 105 0
106 107 108 0
106 107 -108 0
106 -107 108 0
106 -107 -108 0
-106 107 108 0
-106 107 -108 0
-106 -107 108 0
109 110 111 0
109 110 -111 0
109 -110 111 0
109 -110 -111 0
-109 110 111 0
-109 110 -111 0
-109 -110 111 0
112 113 114 0
112 113 -114 0
112 -113 114 0
112 -113 -114 0
-112 113 114 0
-112 113 -114 0
-112 -113 114 0
115 116 117 0
115 116 -117 0
115 -116 117 0
115 -116 -117 0
-115 116 117 0
-115 116 -117 0
-115 -116 117 0
118 119 120 0
118 119 -120 0
118 -119 120 0
118 -119 -120 0
-118 119 120 0
-118 119 -120 0
-118 -119 120 0
121 122 123 0
121 122 -123 0
121 -122 123 0
121 -122 -123 0
-121 122 123 0
-121 122 -123 0
-121 -122 123 0
124 125 126 0
124 125 -126 0
124 -125 126 0
124 -125 -126 0
-124 125 126 0
-124 125 -126 0
-124 -125 126 0
127 128 129 0
127 128 -129 0
127 -128 129 0
127 -128 -129 0
-127 128 129 0
-127 128 -129 0
-127 -128 129 0
130 131 132 0
130 131 -132 0
130 -131 132 0
130 -131 -132 0
-130 131 132 0
-130 131 -132 0
-130 -131 132 0
133 134 135 0
133 134 -135 0
133 -134 135 0
133 -134 -135 0
-133 134 135 0
-133 134 -135 0
-133 -134 135 0
136 137 138 0
136 137 -138 0
136 -137 138 0
136 -137 -138 0
-136 137 138 0
-136 137 -138 0
-136 -137 138 0
139 140 141 0
139 140 -141 0
139 -140 141 0
139 -140 -141 0
-139 140 141 0
-139 140 -141 0
-139 -140 141 0
142 143 144 0
142 143 -144 0
142 -143 144 0
142 -143 -144 0
-142 143 144 0
-142 143 -144 0
-142 -143 144 0
145 146 147 0
145 146 -147 0
145 -146 147 0
145 -146 -147 0
-145 146 147 0
-145 146 -147 0
-145 -146 147 0
148 149 150 0
148 149 -150 0
148 -149 150 0
148 -149 -150 0
-148 149 150 0
-148 149 -150 0
-148 -149 150 0
